POSCAR by ASE
 1.0000000000000000
     4.4388920721492173    0.0000000000000000    0.0000000000000000
    -2.2194377788212756    3.8441932669085590    0.0000000000000000
     0.0000157155310933    0.0000000647502454    5.4365136340615106
Au Li
   3   3
Direct
  0.7568190772174945  0.3934349470782067  0.3934414854767932
  0.4234862684904974  0.7267688586294110  0.7267617200930755
  0.0901529520561126  0.0601018159251420  0.0601015691293129
  0.4234857900978086  0.7267688670512459  0.2267611346132148
  0.7568195556101833  0.3934349386563719  0.8934420709566538
  0.0901534304507596  0.0601018075033165  0.5601016027849343
