POSCAR by ASE
 1.0000000000000000
     5.0052584778205595    0.0000000000000000    0.0000000000000000
    -0.0000121670918660    4.4663730139591733    0.0000000000000000
     0.0005817285132246   -4.4663804392911528    8.5303690035483726
Au Li
   4   8
Direct
  0.2633649105756999  0.7175568485102040  0.0675214635803456
  0.7633720221548390  0.9022006333108015  0.2521649414117051
  0.6515674308116105  0.9022230343653767  0.7521902038857814
  0.1515601194831528  0.7175791217748421  0.5675463743697529
  0.6396426366142397  0.5803571204842809  0.4303237056302079
  0.7752478541584068  0.5803057859156956  0.9302727697593206
  0.1396849410715899  0.0394721692797781  0.8894386628343910
  0.5885603948296919  0.2289019977439296  0.0788669282325478
  0.2752897046769715  0.0394224635136420  0.3893887824334801
  0.3263735114789886  0.3908775576948291  0.7408448564618021
  0.8263960990755046  0.2288303710458196  0.5787979392153152
  0.0885376073627115  0.3909496638681300  0.2409145488483729
