POSCAR by ASE
 1.0000000000000000
     5.5942764882210696    0.0000000000000000    0.0000000000000000
    -0.5949061206984906    5.5627924579367445    0.0000000000000000
     0.0000000000002264    0.0000000000001880    4.2040317075999170
Au Li
   5   3
Direct
  0.2960161731648061  0.7660810702940569  0.5913918288259984
  0.7960160590642101  0.2660821900497227  0.5913918288259984
  0.5136250343401657  0.4836905242008543  0.0913922697836523
  0.7960164870372916  0.7660810702940569  0.5913918288259984
  0.0784069416601005  0.0484716987086720  0.0913922697836523
  0.2960157451917248  0.2660821900497227  0.5913918288259984
  0.5684274586015435  0.9936700032936657  0.0913922697836523
  0.0236057066395237  0.5384939349527761  0.0913922697836523
