POSCAR by ASE
 1.0000000000000000
     7.3762128505831184    0.0000000000000000    0.0000000000000000
    -0.0000000000013755    4.6545432601871459    0.0000000000000000
    -1.5849321871682025   -0.0000000000002583    4.5672512060999910
Au Li
   4   6
Direct
  0.2426416452522917  0.9625890253316178  0.9669141898965032
  0.2426085602415186  0.4625888899599090  0.3453606387564825
  0.6672115201307848  0.4625888899598652  0.5576921183135456
  0.6672440314904768  0.9625885397443186  0.1792454053778809
  0.4549052242673923  0.4625888899598868  0.9458687085637439
  0.4549475344030954  0.9625885397442852  0.5787375996463049
  0.8464212192643064  0.4625888899598977  0.1420129449051830
  0.0634313927240877  0.9625890253316409  0.3825930992291806
  0.0633897106402419  0.4625888899598760  0.7504667129809194
  0.8464626615740554  0.9625885397442960  0.7741395952291293
