POSCAR by ASE
 1.0000000000000000
     7.4022157158540214    0.0000000000000000    0.0000000000000000
    -2.8409548441479910    3.5997994282903125    0.0000000000000000
    -0.0000035892680290   -0.0000028614106374    4.7823482612497408
Au Li
   2   6
Direct
  0.4163110687799385  0.1588679609210804  0.7769551268583287
  0.9163119477360265  0.1588702592964784  0.1736479559067045
  0.1685070061229704  0.9110648770694016  0.2878334920009115
  0.6641184775101626  0.4066756642341888  0.2878334920009115
  0.6685038236343143  0.9110623971671058  0.6627706362756000
  0.1641157024473553  0.4066731843318929  0.6627706362756000
  0.9163103575111247  0.6588679142229270  0.8181064586412155
  0.4163119436333521  0.6588701471783674  0.1324976696352959
