POSCAR by ASE
 1.0000000000000000
     4.4450265333472974    0.0000000000000000    0.0000000000000000
    -2.2225508662342528    3.8495055840922934    0.0000000000000000
    -0.0002120853654616    0.0000020169202607   16.3537530338182648
Au Li
   7  11
Direct
  0.0971308688903380  0.0647276955401336  0.1773260828988228
  0.4304727756266199  0.7313944844614104  0.4120000437972011
  0.7638098391578523  0.3980608302784130  0.2945652264785978
  0.7637762771023726  0.3980610021370257  0.9665548921591754
  0.7637849114854550  0.3980606583909662  0.6226305940370660
  0.0970999235230037  0.0647258955696395  0.8525260208570503
  0.4304382581420242  0.7313948382706276  0.7367177414924565
  0.0971133525699910  0.0647284090489184  0.0133392601521267
  0.4304530632953540  0.7313946623752182  0.0724327292782387
  0.4304576076466151  0.7313943985673460  0.5759379481091902
  0.7637931443056941  0.3980609152561888  0.1323761562073857
  0.4304724935697830  0.7313945720342696  0.2448579820119006
  0.7637681165359274  0.3980610922440963  0.7945760201422156
  0.0971421759541869  0.0647276079512552  0.3444987187058155
  0.7638040378269100  0.3980607452910260  0.4567726411628252
  0.0971322284290589  0.0647272578559098  0.5168872826134467
  0.4304365480628232  0.7313947528218923  0.8998056880014106
  0.0971079327772018  0.0647259810183749  0.6894380743480962
