POSCAR by ASE
 1.0000000000000000
     4.9247387950769479    0.0000000000000000    0.0000000000000000
    -0.0000000000001559    4.6242468216068513    0.0000000000000000
    -2.5346100475110247    0.0000000000000108    7.2686375084814960
Au Li
   2   8
Direct
  0.1659495827653818  0.5376507993438089  0.7754795851936176
  0.3341356864547192  0.0376522242670090  0.3558369772852161
  0.3682228644891454  0.5376507993438103  0.1637693444763191
  0.5836172603655728  0.5376507993438094  0.5605961220717509
  0.4696891004102507  0.0376522242670081  0.7380544144263894
  0.7478226983746309  0.0376522242670094  0.1879348087459351
  0.0303977307145733  0.5376507993438098  0.3932635238261005
  0.7522649449760120  0.5376507993438085  0.9433831295065547
  0.9164683524204915  0.0376513206835040  0.5707218161807388
  0.1318638261261384  0.0376522242670074  0.9675472180025145
