POSCAR by ASE
 1.0000000000000000
    14.4096179295340665    0.0000000000000000    0.0000000000000000
    -2.4133482666347645    7.9830477911254869    0.0000000000000000
    -1.0126533959890227   -4.6624950087632291    2.7218395847483570
Au Li
9 11
Direct
  0.0325440415708224  0.1390764055176111  0.7986547084482115
  0.0324962001596418  0.5686058286380548  0.6577610267820104
  0.2255784744025358  0.1918198600648555  0.7111036266962605
  0.8270502037959931  0.9942585130443009  0.2156631193626768
  0.4200796495865955  0.2730590795086035  0.1980610533671419
  0.8270502829938717  0.4954110835592181  0.2156667933484826
  0.4200792314585253  0.7920409406225644  0.1980610533671419
  0.6222122484171707  0.3852487695215456  0.7013271504670560
  0.6311002240670989  0.9032261773564819  0.7283970778841091
  0.8233972149780021  0.9858270468740208  0.7013014325664154
  0.8262309008865526  0.4965678661314812  0.7199505845166002
  0.6258599841839320  0.8922932213378998  0.2126778533326089
  0.4315100360732027  0.7860710391230880  0.6936742380335975
  0.0210379166569632  0.6075193106915990  0.1999274381564826
  0.4321518385620229  0.3201971106982711  0.7612829248317262
  0.2242414017166754  0.6896879853210797  0.2081681883188673
  0.2391018280251428  0.7160294457005374  0.7459991438796441
  0.2242417260466406  0.1896792036578489  0.2081681883188673
  0.6258600380687626  0.3931999525520555  0.2126745467453836
  0.0210422469512275  0.0604014798324513  0.1999274381564826
