POSCAR by ASE
 1.0000000000000000
     4.0793471716409950    0.0000000000000000    0.0000000000000000
    -0.0000000000000020    4.0793471716409959    0.0000000000000000
    -0.0000000000000031   -0.0000000000000027    4.0793448088064750
Au Li
   3   1
Direct
  0.1094691894486071  0.6094676170941997  0.4309589118832934
  0.6094676170942004  0.1094691894486064  0.4309589118832934
  0.1094691894486068  0.1094691894486062  0.9309592561550585
  0.6094676170941999  0.6094676170941994  0.9309592561550585
