POSCAR by ASE
 1.0000000000000000
     2.8594477809511774    0.0000000000000000    0.0000000000000000
    -0.0002357534541743   11.5307123398394857    0.0000000000000000
    -0.0003907702996188    2.2653572029051423    6.8667407289608446
Au Li
   5   9
Direct
  0.5322951972606473  0.1672701632885490  0.7955724870985077
  0.5324190222225991  0.3767097535608149  0.2445963909655540
  0.5325849016945257  0.5834801096593319  0.5915441051776402
  0.5325752778243668  0.7519947983097132  0.0080371857941848
  0.5324115519596635  0.9579845470599293  0.4534188959353898
  0.0323515154306964  0.1673583132872276  0.4498669924978340
  0.0324328849918096  0.3739670874653423  0.5879616195456652
  0.0322232577003547  0.2914893854407558  0.9974761346547203
  0.0327556293628828  0.5419711902529796  0.9333875055116482
  0.0324940187718754  0.5720360108911375  0.2760479934833446
  0.0327266623711462  0.7917639234676027  0.3096986014093799
  0.0324917248249474  0.7626981970638541  0.6816348810519782
  0.0322211748314472  0.0408934696056260  0.1206683101497256
  0.0324237668101689  0.9610289311936925  0.7930545530913189
